4 10 18 14 6 11 15 17 8 12 0 9 1 13 16 5 7 2 3 19  
4 10 18 14 6 11 15 17 12 9 19 5 2 8 0 1 7 13 16 3  
4 10 18 14 6 11 15 17 8 12 5 9 13 16 0 1 2 7 3 19  
4 10 18 14 6 11 15 17 8 12 0 9 13 19 16 5 2 7 3 1  
4 10 18 14 6 11 15 17 8 12 0 9 13 19 16 5 2 7 3 1  
4 10 18 14 6 11 15 17 12 9 19 5 8 7 2 1 0 13 16 3  
4 10 18 14 6 11 15 17 8 12 5 9 13 16 0 2 1 7 3 19  
4 10 18 14 6 11 15 17 8 12 5 9 19 7 2 1 0 13 16 3  
4 10 18 14 6 11 15 17 8 12 0 9 16 19 5 7 2 3 1 13  
4 10 18 14 6 11 15 17 8 12 0 9 13 3 19 16 5 2 1 7  
4 10 18 14 6 7 8 11 17 12 9 15 5 3 19 13 16 0 1 2  
4 10 18 14 6 7 8 11 0 12 9 15 17 2 13 16 5 3 1 19  
4 10 18 14 6 11 15 17 8 12 0 9 13 16 5 19 2 7 3 1  
4 10 18 14 6 11 17 15 8 16 5 9 19 7 2 1 0 13 12 3  
4 10 18 14 6 11 15 17 8 12 0 9 19 3 13 16 5 7 2 1  
4 10 18 14 6 11 7 17 8 12 0 15 9 13 3 19 16 5 2 1  
4 10 18 14 6 11 15 17 8 12 0 9 16 19 5 7 2 3 1 13  
4 10 18 14 6 11 15 17 8 12 0 9 1 13 16 5 2 7 3 19  
4 10 18 14 6 11 15 17 8 12 0 9 2 19 16 5 13 7 3 1  
4 10 18 14 6 11 7 8 17 12 15 9 19 5 0 1 2 13 16 3  
4 10 18 14 6 11 15 17 8 12 0 9 19 3 13 16 5 7 2 1  
4 10 18 14 6 11 17 15 8 16 5 9 19 7 2 1 0 13 12 3  
4 10 18 14 6 11 7 8 17 12 9 15 5 2 13 16 0 1 3 19  
4 10 18 14 6 7 8 11 17 12 0 15 9 2 13 16 5 3 19 1  
4 10 18 14 6 11 7 8 17 12 9 15 5 0 13 19 16 3 2 1  
4 10 18 14 6 15 7 9 8 11 12 17 2 13 16 5 0 1 3 19  
4 10 18 14 6 11 15 17 8 12 5 9 19 2 13 16 0 1 7 3  
4 10 18 14 6 11 15 17 8 12 0 9 13 3 19 16 5 2 1 7  
4 10 18 14 6 11 15 17 8 12 0 9 2 19 16 5 13 7 3 1  
4 10 18 14 6 11 15 17 8 12 5 9 19 2 13 16 0 1 7 3  
4 10 18 14 6 11 15 17 8 12 0 9 2 19 16 5 13 7 3 1  
4 10 18 14 6 7 8 11 17 12 9 15 19 5 2 0 1 13 16 3  
4 10 18 14 6 7 8 11 17 12 3 15 5 9 19 13 16 0 1 2  
4 10 18 14 6 11 15 17 8 12 0 9 13 16 5 2 7 3 1 19  
4 10 18 14 6 7 8 11 17 12 9 15 5 3 19 13 16 0 1 2  
4 10 18 14 6 11 15 17 8 12 0 9 13 16 5 19 1 7 2 3  
4 10 18 14 6 11 8 15 17 12 5 9 19 2 13 16 0 1 7 3  
4 10 18 14 6 7 8 11 17 12 9 15 13 5 2 0 1 3 16 19  
4 10 18 14 6 11 15 17 8 12 0 9 13 16 5 2 7 3 1 19  
4 10 18 14 6 11 15 17 8 12 0 9 13 7 3 19 16 5 1 2  
4 10 18 14 6 7 8 11 17 12 9 15 19 5 16 0 1 13 2 3  
4 10 18 14 6 11 15 0 8 17 12 9 13 2 19 16 5 7 3 1  
4 10 18 14 6 11 15 17 8 12 0 9 13 16 5 19 7 3 1 2  
4 10 18 14 6 7 8 11 17 12 5 9 19 2 13 16 15 0 1 3  
4 10 18 14 6 11 15 17 8 16 5 9 19 7 3 1 0 13 12 2  
4 10 18 14 6 11 15 17 8 12 0 9 19 3 13 16 5 7 2 1  
4 10 18 14 6 7 8 11 17 12 9 15 13 5 0 16 2 1 19 3  
4 10 18 14 6 11 15 17 8 12 0 9 2 19 16 5 13 7 3 1  
4 10 18 14 6 11 15 17 8 12 5 9 19 2 13 16 0 1 7 3  
4 10 18 14 6 7 11 8 17 12 0 15 9 19 3 13 16 5 2 1  
4 10 18 14 6 11 17 15 8 16 5 9 19 7 3 1 0 13 12 2  
4 10 18 14 6 11 7 8 17 12 5 9 19 2 13 15 16 0 1 3  
4 10 18 14 6 7 8 11 17 12 9 15 13 5 2 16 0 1 3 19  
4 10 18 14 6 11 15 17 8 12 0 7 9 13 3 19 16 5 2 1  
